#######################################
### Exact MIP solver for the HHCRSP ###
#######################################
-- Instance file: new-instances/HHCRSP_300_60_64_1.2_C_RC.txt
-- Max threads: 4
-- Time limit: 999999 seconds
-- Use initial solution: No
Trivial flow violations prevented generating 1189122 variables.
Version identifier: 20.1.0.0 | 2020-11-10 | 9bedb6d68
CPXPARAM_Threads                                 4
CPXPARAM_TimeLimit                               999999
Parallel mode: deterministic, using up to 4 threads for concurrent optimization:
 * Starting dual Simplex on 1 thread...
 * Starting Barrier on 3 threads...
Tried aggregator 1 time.
LP Presolve eliminated 46980 rows and 10732 columns.
Reduced LP has 1266936 rows, 1201677 columns, and 29210638 nonzeros.
Presolve time = 33.61 sec. (6430.35 ticks)
Symmetry aggregator did 2053160 additional substitutions.

Iteration log . . .
Iteration:     1   Dual objective     =             0.000000
Iteration:  1366   Dual objective     =           386.333333

Dual crossover.
  Dual:  Fixing 2242 variables.
     2241 DMoves:  Infeasibility  1.73855375e-12  Objective  3.88333333e+02
        0 DMoves:  Infeasibility  7.02040279e-13  Objective  3.88333333e+02
  Dual:  Pushed 43, exchanged 2199.
  Primal:  Fixing 1167 variables.
     1166 PMoves:  Infeasibility  1.66533454e-16  Objective  3.88333333e+02
        0 PMoves:  Infeasibility  1.66533454e-16  Objective  3.88333333e+02
  Primal:  Pushed 1027, exchanged 140.

Dual simplex solved model.


Solution status from MIP model:
-- Processing time: 54.179 sec.
-- Memory used: 1101.65 MB
-- Best bound: inf
-- Obj value: 388.333
-- Gap: inf%
-- Total distance: 1165
-- Total tardiness: 0
-- Largest tardiness: 0
